(set-logic QF_S)
(declare-fun var_0xINPUT_258684 () String)
(assert (and (= (len var_0xINPUT_258684) 0) (= (len var_0xINPUT_258684) 0) (not (= var_0xINPUT_258684 "Example:")) (not (= var_0xINPUT_258684 "6JX7G3VKFq"))))
(check-sat var_0xINPUT_258684)